(set-option :produce-models true); benchmark generated from python API
(set-info :status unknown)
(declare-fun l_1_0_8 () Real)
(declare-fun l_1_0_7 () Real)
(declare-fun l_1_0_6 () Real)
(declare-fun l_1_0_5 () Real)
(declare-fun l_1_0_4 () Real)
(declare-fun l_1_0_3 () Real)
(declare-fun l_1_0_2 () Real)
(declare-fun l_1_0_11 () Real)
(declare-fun l_1_0_10 () Real)
(declare-fun l_1_0_1 () Real)
(declare-fun _a_0_ () Real)
(declare-fun l_1_0_13 () Real)
(declare-fun l_1_0_12 () Real)
(declare-fun _a_1_ () Real)
(declare-fun l_1_0_9 () Real)
(declare-fun _a_2_ () Real)
(declare-fun _a_3_ () Real)
(declare-fun l_1_0_14 () Real)
(declare-fun _a_4_ () Real)
(declare-fun _a_5_ () Real)
(declare-fun l_1_1_9 () Real)
(declare-fun l_1_1_8 () Real)
(declare-fun l_1_1_7 () Real)
(declare-fun l_1_1_5 () Real)
(declare-fun l_1_1_3 () Real)
(declare-fun l_1_1_2 () Real)
(declare-fun l_1_1_17 () Real)
(declare-fun l_1_1_16 () Real)
(declare-fun l_1_1_14 () Real)
(declare-fun l_1_1_12 () Real)
(declare-fun l_1_1_11 () Real)
(declare-fun l_1_1_6 () Real)
(declare-fun l_1_1_4 () Real)
(declare-fun l_1_1_13 () Real)
(declare-fun l_1_1_10 () Real)
(declare-fun l_1_1_1 () Real)
(declare-fun l_1_1_20 () Real)
(declare-fun l_1_1_19 () Real)
(declare-fun l_1_1_18 () Real)
(declare-fun l_1_1_15 () Real)
(declare-fun l_1_2_9 () Real)
(declare-fun l_1_2_8 () Real)
(declare-fun l_1_2_6 () Real)
(declare-fun l_1_2_5 () Real)
(declare-fun l_1_2_3 () Real)
(declare-fun l_1_2_17 () Real)
(declare-fun l_1_2_16 () Real)
(declare-fun l_1_2_14 () Real)
(declare-fun l_1_2_12 () Real)
(declare-fun l_1_2_11 () Real)
(declare-fun l_1_2_1 () Real)
(declare-fun l_1_2_7 () Real)
(declare-fun l_1_2_4 () Real)
(declare-fun l_1_2_2 () Real)
(declare-fun l_1_2_13 () Real)
(declare-fun l_1_2_10 () Real)
(declare-fun l_1_2_19 () Real)
(declare-fun l_1_2_18 () Real)
(declare-fun l_1_2_15 () Real)
(declare-fun l_1_2_20 () Real)
(assert
 (let ((?x1593 (* l_1_0_11 l_1_0_11)))
 (let ((?x52 (- (- (- (- _a_0_ l_1_0_1) (* l_1_0_10 l_1_0_10)) ?x1593) (* 1.0 l_1_0_2))))
 (let ((?x46 (- (- (- ?x52 (* 1.0 l_1_0_3)) (* 1.0 l_1_0_4)) (* 1.0 l_1_0_5))))
 (= (- (- (- ?x46 l_1_0_6) l_1_0_7) l_1_0_8) 0.0)))))
(assert
 (let ((?x1494 (- (- _a_1_ (* (* 2.0 l_1_0_10) l_1_0_12)) (* (* 2.0 l_1_0_11) l_1_0_13))))
 (= ?x1494 0.0)))
(assert
 (= (- _a_2_ (* (* 2.0 l_1_0_12) l_1_0_9)) 0.0))
(assert
 (= (- _a_3_ (* (* 2.0 l_1_0_10) l_1_0_9)) 0.0))
(assert
 (let ((?x1344 (* 2.0 l_1_0_4)))
 (let ((?x1341 (* l_1_0_14 l_1_0_14)))
 (let ((?x633 (- (- (- _a_4_ (* l_1_0_12 l_1_0_12)) (* l_1_0_13 l_1_0_13)) ?x1341)))
 (= (+ (+ (+ (+ ?x633 l_1_0_2) l_1_0_3) ?x1344) l_1_0_5) 0.0)))))
(assert
 (let ((?x1198 (* l_1_0_9 l_1_0_9)))
 (let ((?x1285 (- (- (- (- _a_5_ l_1_0_2) l_1_0_3) (* 2.0 l_1_0_4)) l_1_0_5)))
 (= (- ?x1285 ?x1198) 0.0))))
(assert
 (= (- l_1_0_4) 0.0))
(assert
 (let ((?x1344 (* 2.0 l_1_0_4)))
 (= ?x1344 0.0)))
(assert
 (= (- l_1_0_4) 0.0))
(assert
 (>= l_1_0_1 0.0))
(assert
 (>= l_1_0_2 0.0))
(assert
 (>= l_1_0_3 0.0))
(assert
 (>= l_1_0_4 0.0))
(assert
 (>= l_1_0_5 0.0))
(assert
 (>= l_1_0_6 0.0))
(assert
 (>= l_1_0_7 0.0))
(assert
 (>= l_1_0_8 0.0))
(assert
 (>= l_1_0_9 0.0))
(assert
 (>= l_1_0_11 0.0))
(assert
 (>= l_1_0_14 0.0))
(assert
 (let ((?x1218 (* l_1_1_17 l_1_1_17)))
 (let ((?x1216 (* l_1_1_16 l_1_1_16)))
 (let ((?x56 (* _a_0_ l_1_1_6)))
 (let ((?x1207 (+ (- (* (- _a_0_) l_1_1_1) (* _a_0_ l_1_1_10)) (* (* 1.0 _a_0_) l_1_1_13))))
 (let ((?x57 (+ (- (+ ?x1207 (* (* 1.0 _a_0_) l_1_1_4)) ?x56) (* 1.0 l_1_1_11))))
 (let ((?x461 (- (- (- (- ?x57 (* (* l_1_1_12 _a_0_) _a_0_)) l_1_1_14) ?x1216) ?x1218)))
 (let ((?x1104 (- (- (+ (- ?x461 l_1_1_2) (* 1.0 l_1_1_3)) (* 1.0 l_1_1_5)) l_1_1_7)))
 (= (+ (- (+ ?x1104 (* 1.0 l_1_1_8)) l_1_1_9) (/ 15.0 4.0)) 0.0)))))))))
(assert
 (let ((?x918 (* 2.0 l_1_1_5)))
 (let ((?x931 (* l_1_1_20 l_1_1_20)))
 (let ((?x932 (* l_1_1_19 l_1_1_19)))
 (let ((?x933 (* l_1_1_18 l_1_1_18)))
 (let ((?x950 (* _a_4_ l_1_1_6)))
 (let ((?x952 (- (- (- (* (- _a_4_) l_1_1_1) (* _a_4_ l_1_1_10)) ?x950) l_1_1_11)))
 (let ((?x35 (- ?x952 (* l_1_1_12 (+ (* (* 2.0 _a_0_) _a_4_) (* _a_1_ _a_1_))))))
 (let ((?x28 (- (- (- ?x35 (* l_1_1_13 (- _a_0_ (* 1.0 _a_4_)))) ?x933) ?x932)))
 (let ((?x929 (- (- (- ?x28 ?x931) l_1_1_3) (* l_1_1_4 (- _a_0_ (* 1.0 _a_4_))))))
 (= (+ (- (+ ?x929 ?x918) l_1_1_8) 1.0) 0.0)))))))))))
(assert
 (let ((?x918 (* 2.0 l_1_1_5)))
 (let ((?x577 (* l_1_1_15 l_1_1_15)))
 (let ((?x632 (* _a_5_ l_1_1_6)))
 (let ((?x635 (- (- (- (* (- _a_5_) l_1_1_1) (* _a_5_ l_1_1_10)) ?x632) l_1_1_11)))
 (let ((?x639 (- ?x635 (* l_1_1_12 (+ (* (* 2.0 _a_0_) _a_5_) (* _a_3_ _a_3_))))))
 (let ((?x291 (- (- (- ?x639 (* l_1_1_13 (- _a_0_ (* 1.0 _a_5_)))) ?x577) l_1_1_3)))
 (let ((?x581 (- (+ (- ?x291 (* l_1_1_4 (- _a_0_ (* 1.0 _a_5_)))) ?x918) l_1_1_8)))
 (= (+ ?x581 1.0) 0.0)))))))))
(assert
 (let ((?x305 (* _a_3_ l_1_1_6)))
 (let ((?x296 (* _a_3_ l_1_1_10)))
 (let ((?x294 (* _a_3_ l_1_1_1)))
 (let ((?x302 (+ (- (- (* (* (* (- 2.0) _a_0_) _a_3_) l_1_1_12) ?x294) ?x296) (* (* 1.0 _a_3_) l_1_1_13))))
 (let ((?x19 (- (- (+ ?x302 (* (* 1.0 _a_3_) l_1_1_4)) ?x305) (* (* 2.0 l_1_1_15) l_1_1_16))))
 (= (- ?x19 4.0) 0.0)))))))
(assert
 (let ((?x146 (* _a_1_ l_1_1_6)))
 (let ((?x263 (* _a_1_ l_1_1_10)))
 (let ((?x262 (* _a_1_ l_1_1_1)))
 (let ((?x258 (+ (- (- (* (* (* (- 2.0) _a_0_) _a_1_) l_1_1_12) ?x262) ?x263) (* (* 1.0 _a_1_) l_1_1_13))))
 (let ((?x231 (- (- (+ ?x258 (* (* 1.0 _a_1_) l_1_1_4)) ?x146) (* (* 2.0 l_1_1_16) l_1_1_18))))
 (= (- ?x231 (* (* 2.0 l_1_1_17) l_1_1_19)) 0.0)))))))
(assert
 (let ((?x110 (+ (* (* 2.0 _a_0_) _a_2_) (* (* 2.0 _a_1_) _a_3_))))
 (let ((?x149 (* _a_2_ l_1_1_6)))
 (let ((?x147 (+ (- (* (- _a_2_) l_1_1_1) (* _a_2_ l_1_1_10)) (* (* 1.0 _a_2_) l_1_1_13))))
 (let ((?x114 (- (- (+ ?x147 (* (* 1.0 _a_2_) l_1_1_4)) ?x149) (* l_1_1_12 ?x110))))
 (= (- ?x114 (* (* 2.0 l_1_1_15) l_1_1_18)) 0.0))))))
(assert
 (let ((?x229 (* _a_1_ l_1_1_4)))
 (let ((?x228 (* _a_1_ l_1_1_13)))
 (= (- (- (* (* (* (- 2.0) _a_1_) _a_4_) l_1_1_12) ?x228) ?x229) 0.0))))
(assert
 (let ((?x68 (* _a_2_ l_1_1_4)))
 (let ((?x67 (* _a_2_ l_1_1_13)))
 (= (- (- (* (* (* (- 2.0) _a_2_) _a_4_) l_1_1_12) ?x67) ?x68) 0.0))))
(assert
 (let ((?x960 (+ (* (* 2.0 _a_1_) _a_2_) (* (* 2.0 _a_3_) _a_4_))))
 (let ((?x954 (- (- (* (- _a_3_) l_1_1_13) (* _a_3_ l_1_1_4)) (* l_1_1_12 ?x960))))
 (= ?x954 0.0))))
(assert
 (let ((?x885 (- (- (* (- _a_4_) l_1_1_13) (* _a_4_ l_1_1_4)) (* (* l_1_1_12 _a_4_) _a_4_))))
 (= (- ?x885 l_1_1_5) 0.0)))
(assert
 (let ((?x918 (* 2.0 l_1_1_5)))
 (let ((?x162 (* _a_2_ _a_2_)))
 (let ((?x159 (+ ?x162 (* (* 2.0 _a_4_) _a_5_))))
 (let ((?x1447 (- (- (* (- l_1_1_12) ?x159) (* l_1_1_13 (+ _a_4_ _a_5_))) (* l_1_1_4 (+ _a_4_ _a_5_)))))
 (= (- ?x1447 ?x918) 0.0))))))
(assert
 (let ((?x121 (+ (* (* 2.0 _a_1_) _a_5_) (* (* 2.0 _a_2_) _a_3_))))
 (let ((?x922 (- (- (* (- _a_1_) l_1_1_13) (* _a_1_ l_1_1_4)) (* l_1_1_12 ?x121))))
 (= ?x922 0.0))))
(assert
 (let ((?x68 (* _a_2_ l_1_1_4)))
 (let ((?x67 (* _a_2_ l_1_1_13)))
 (= (- (- (* (* (* (- 2.0) _a_2_) _a_5_) l_1_1_12) ?x67) ?x68) 0.0))))
(assert
 (let ((?x277 (* _a_3_ l_1_1_4)))
 (let ((?x12 (* _a_3_ l_1_1_13)))
 (= (- (- (* (* (* (- 2.0) _a_3_) _a_5_) l_1_1_12) ?x12) ?x277) 0.0))))
(assert
 (let ((?x1355 (- (- (* (- _a_5_) l_1_1_13) (* _a_5_ l_1_1_4)) (* (* l_1_1_12 _a_5_) _a_5_))))
 (= (- ?x1355 l_1_1_5) 0.0)))
(assert
 (>= l_1_1_1 0.0))
(assert
 (>= l_1_1_2 0.0))
(assert
 (>= l_1_1_3 0.0))
(assert
 (>= l_1_1_4 0.0))
(assert
 (>= l_1_1_5 0.0))
(assert
 (>= l_1_1_6 0.0))
(assert
 (>= l_1_1_7 0.0))
(assert
 (>= l_1_1_8 0.0))
(assert
 (>= l_1_1_9 0.0))
(assert
 (>= l_1_1_10 0.0))
(assert
 (>= l_1_1_11 0.0))
(assert
 (>= l_1_1_12 0.0))
(assert
 (>= l_1_1_13 0.0))
(assert
 (>= l_1_1_14 0.0))
(assert
 (>= l_1_1_15 0.0))
(assert
 (>= l_1_1_17 0.0))
(assert
 (>= l_1_1_20 0.0))
(assert
 (let ((?x1174 (* l_1_2_17 l_1_2_17)))
 (let ((?x1179 (* l_1_2_16 l_1_2_16)))
 (let ((?x311 (* _a_0_ l_1_2_7)))
 (let ((?x308 (- (- (* (- _a_0_) l_1_2_10) (* _a_0_ l_1_2_13)) (* (* 1.0 _a_0_) l_1_2_2))))
 (let ((?x1274 (- (+ (- (- ?x308 (* (* 1.0 _a_0_) l_1_2_4)) ?x311) _a_0_) (* 1.0 l_1_2_1))))
 (let ((?x1175 (- (- (- ?x1274 (* 1.0 l_1_2_11)) (* 1.0 l_1_2_12)) l_1_2_14)))
 (let ((?x1008 (- (- (- (- (- ?x1175 ?x1179) ?x1174) (* 1.0 l_1_2_3)) l_1_2_5) l_1_2_6)))
 (= (- (- ?x1008 (* (* l_1_2_8 _a_0_) _a_0_)) l_1_2_9) 0.0)))))))))
(assert
 (let ((?x1418 (* (/ 9.0 1000.0) _a_3_)))
 (let ((?x543 (* (/ 9.0 10.0) _a_1_)))
 (let ((?x537 (* _a_1_ l_1_2_7)))
 (let ((?x1554 (* _a_1_ l_1_2_13)))
 (let ((?x972 (* _a_1_ l_1_2_10)))
 (let ((?x1558 (- (- (- (* (* (* (- 2.0) _a_0_) _a_1_) l_1_2_8) ?x972) ?x1554) (* (* 1.0 _a_1_) l_1_2_2))))
 (let ((?x1419 (+ (+ (- (- ?x1558 (* (* 1.0 _a_1_) l_1_2_4)) ?x537) ?x543) ?x1418)))
 (let ((?x844 (- (- ?x1419 (* (* 2.0 l_1_2_16) l_1_2_18)) (* (* 2.0 l_1_2_17) l_1_2_19))))
 (= ?x844 0.0))))))))))
(assert
 (let ((?x139 (* (/ 9.0 10.0) _a_3_)))
 (let ((?x143 (* _a_3_ l_1_2_7)))
 (let ((?x485 (* _a_3_ l_1_2_13)))
 (let ((?x1300 (* _a_3_ l_1_2_10)))
 (let ((?x1303 (- (- (* (* (* (- 2.0) _a_0_) _a_3_) l_1_2_8) (* (/ 9.0 1000.0) _a_1_)) ?x1300)))
 (let ((?x136 (- (- (- ?x1303 ?x485) (* (* 1.0 _a_3_) l_1_2_2)) (* (* 1.0 _a_3_) l_1_2_4))))
 (= (- (+ (- ?x136 ?x143) ?x139) (* (* 2.0 l_1_2_15) l_1_2_16)) 0.0))))))))
(assert
 (let ((?x110 (+ (* (* 2.0 _a_0_) _a_2_) (* (* 2.0 _a_1_) _a_3_))))
 (let ((?x384 (* (/ 81.0 5000.0) _a_5_)))
 (let ((?x1039 (* (/ 81.0 5000.0) _a_4_)))
 (let ((?x1041 (* (/ 809919.0 1000000.0) _a_2_)))
 (let ((?x536 (* _a_2_ l_1_2_7)))
 (let ((?x539 (- (- (* (- _a_2_) l_1_2_10) (* _a_2_ l_1_2_13)) (* (* 1.0 _a_2_) l_1_2_2))))
 (let ((?x1021 (- (+ (- (- ?x539 (* (* 1.0 _a_2_) l_1_2_4)) ?x536) ?x1041) ?x1039)))
 (let ((?x395 (- (- (+ ?x1021 ?x384) (* (* 2.0 l_1_2_15) l_1_2_18)) (* l_1_2_8 ?x110))))
 (= ?x395 0.0))))))))))
(assert
 (let ((?x154 (* l_1_2_20 l_1_2_20)))
 (let ((?x662 (* l_1_2_19 l_1_2_19)))
 (let ((?x405 (* l_1_2_18 l_1_2_18)))
 (let ((?x681 (* 2.0 l_1_2_11)))
 (let ((?x1379 (* (/ 81.0 1000000.0) _a_5_)))
 (let ((?x1383 (* (/ 81.0 100.0) _a_4_)))
 (let ((?x1246 (* _a_4_ l_1_2_7)))
 (let ((?x1244 (* _a_4_ l_1_2_13)))
 (let ((?x1372 (+ (- (- (- (* (/ 81.0 10000.0) _a_2_) (* _a_4_ l_1_2_10)) ?x1244) ?x1246) ?x1383)))
 (let ((?x663 (- (- (+ (+ (+ (+ ?x1372 ?x1379) l_1_2_1) ?x681) l_1_2_12) ?x405) ?x662)))
 (let ((?x1142 (+ (- (- ?x663 (* l_1_2_2 (+ (- _a_0_) (* 1.0 _a_4_)))) ?x154) l_1_2_3)))
 (let ((?x250 (- (- ?x1142 (* l_1_2_4 (+ (- _a_0_) (* 1.0 _a_4_)))) (* l_1_2_8 (+ (* (* 2.0 _a_0_) _a_4_) (* _a_1_ _a_1_))))))
 (= ?x250 0.0))))))))))))))
(assert
 (let ((?x1516 (* l_1_2_15 l_1_2_15)))
 (let ((?x681 (* 2.0 l_1_2_11)))
 (let ((?x1519 (* (/ 81.0 100.0) _a_5_)))
 (let ((?x1518 (* _a_5_ l_1_2_7)))
 (let ((?x487 (* _a_5_ l_1_2_13)))
 (let ((?x1512 (- (- (+ (* (- (/ 81.0 10000.0)) _a_2_) (* (/ 81.0 1000000.0) _a_4_)) (* _a_5_ l_1_2_10)) ?x487)))
 (let ((?x1517 (- (+ (+ (+ (+ (- ?x1512 ?x1518) ?x1519) l_1_2_1) ?x681) l_1_2_12) ?x1516)))
 (let ((?x827 (+ (- ?x1517 (* l_1_2_2 (+ (- _a_0_) (* 1.0 _a_5_)))) l_1_2_3)))
 (let ((?x445 (- (- ?x827 (* l_1_2_4 (+ (- _a_0_) (* 1.0 _a_5_)))) (* l_1_2_8 (+ (* (* 2.0 _a_0_) _a_5_) (* _a_3_ _a_3_))))))
 (= ?x445 0.0)))))))))))
(assert
 (let ((?x671 (* _a_1_ l_1_2_4)))
 (let ((?x1137 (* _a_1_ l_1_2_2)))
 (= (+ (+ (* (* (* (- 2.0) _a_1_) _a_4_) l_1_2_8) ?x1137) ?x671) 0.0))))
(assert
 (let ((?x622 (* _a_2_ l_1_2_4)))
 (let ((?x624 (* _a_2_ l_1_2_2)))
 (= (+ (+ (* (* (* (- 2.0) _a_2_) _a_4_) l_1_2_8) ?x624) ?x622) 0.0))))
(assert
 (let ((?x960 (+ (* (* 2.0 _a_1_) _a_2_) (* (* 2.0 _a_3_) _a_4_))))
 (let ((?x396 (- (+ (* _a_3_ l_1_2_2) (* _a_3_ l_1_2_4)) (* l_1_2_8 ?x960))))
 (= ?x396 0.0))))
(assert
 (let ((?x441 (- (- (+ (* _a_4_ l_1_2_2) (* _a_4_ l_1_2_4)) l_1_2_11) (* (* l_1_2_8 _a_4_) _a_4_))))
 (= ?x441 0.0)))
(assert
 (let ((?x248 (- (- (* (- 2.0) l_1_2_11) (* l_1_2_2 (- (- _a_4_) _a_5_))) (* l_1_2_4 (- (- _a_4_) _a_5_)))))
 (let ((?x1219 (- ?x248 (* l_1_2_8 (+ (* _a_2_ _a_2_) (* (* 2.0 _a_4_) _a_5_))))))
 (= ?x1219 0.0))))
(assert
 (let ((?x121 (+ (* (* 2.0 _a_1_) _a_5_) (* (* 2.0 _a_2_) _a_3_))))
 (let ((?x865 (- (+ (* _a_1_ l_1_2_2) (* _a_1_ l_1_2_4)) (* l_1_2_8 ?x121))))
 (= ?x865 0.0))))
(assert
 (let ((?x622 (* _a_2_ l_1_2_4)))
 (let ((?x624 (* _a_2_ l_1_2_2)))
 (= (+ (+ (* (* (* (- 2.0) _a_2_) _a_5_) l_1_2_8) ?x624) ?x622) 0.0))))
(assert
 (let ((?x570 (* _a_3_ l_1_2_4)))
 (let ((?x572 (* _a_3_ l_1_2_2)))
 (= (+ (+ (* (* (* (- 2.0) _a_3_) _a_5_) l_1_2_8) ?x572) ?x570) 0.0))))
(assert
 (let ((?x1099 (- (- (+ (* _a_5_ l_1_2_2) (* _a_5_ l_1_2_4)) l_1_2_11) (* (* l_1_2_8 _a_5_) _a_5_))))
 (= ?x1099 0.0)))
(assert
 (>= l_1_2_1 0.0))
(assert
 (>= l_1_2_2 0.0))
(assert
 (>= l_1_2_3 0.0))
(assert
 (>= l_1_2_4 0.0))
(assert
 (>= l_1_2_5 0.0))
(assert
 (>= l_1_2_6 0.0))
(assert
 (>= l_1_2_7 0.0))
(assert
 (>= l_1_2_8 0.0))
(assert
 (>= l_1_2_9 0.0))
(assert
 (>= l_1_2_10 0.0))
(assert
 (>= l_1_2_11 0.0))
(assert
 (>= l_1_2_12 0.0))
(assert
 (>= l_1_2_13 0.0))
(assert
 (>= l_1_2_14 0.0))
(assert
 (>= l_1_2_15 0.0))
(assert
 (>= l_1_2_17 0.0))
(assert
 (>= l_1_2_20 0.0))
(check-sat)
(get-model)